c ind 10 100 102 106 109 122 125 13 142 144 0
c ind 146 148 150 152 154 156 158 160 162 164 0
c ind 166 168 170 172 189 191 193 195 197 199 0
c ind 201 203 205 207 209 211 213 215 217 219 0
c ind 30 31 33 35 37 39 41 43 45 47 0
c ind 49 5 51 53 55 57 59 6 61 70 0
c ind 73 9 96 98 0
p cnf 219 558
-1 -2 11 0
-1 2 173 0
-101 -102 31 0
-101 -31 102 0
-103 -31 31 0
-104 -105 107 0
-104 105 80 0
-105 -106 13 0
-105 -13 106 0
-107 -108 31 0
-107 108 80 0
-108 -109 13 0
-108 -13 109 0
-11 -12 14 0
-11 12 62 0
-110 -111 31 0
-110 111 115 0
-111 101 0
-111 112 0
-112 113 0
-112 99 0
-113 114 0
-113 97 0
-114 -13 96 0
-114 -96 13 0
-115 -116 31 0
-115 116 13 0
-116 101 0
-116 117 0
-117 118 0
-117 99 0
-118 119 0
-118 95 0
-119 -13 98 0
-119 -98 13 0
-12 -13 9 0
-12 -9 13 0
-120 -121 123 0
-120 121 173 0
-121 -122 13 0
-121 -13 122 0
-123 -124 126 0
-123 124 173 0
-124 -125 13 0
-124 -13 125 0
-126 127 0
-126 171 0
-127 128 0
-127 169 0
-128 129 0
-128 167 0
-129 130 0
-129 165 0
-130 131 0
-130 163 0
-131 132 0
-131 161 0
-132 133 0
-132 159 0
-133 134 0
-133 157 0
-134 135 0
-134 155 0
-135 136 0
-135 153 0
-136 137 0
-136 151 0
-137 138 0
-137 149 0
-138 139 0
-138 147 0
-139 140 0
-139 145 0
-14 15 0
-14 60 0
-140 141 0
-140 143 0
-141 -142 30 0
-141 -30 142 0
-143 -144 33 0
-143 -33 144 0
-145 -146 35 0
-145 -35 146 0
-147 -148 37 0
-147 -37 148 0
-149 -150 39 0
-149 -39 150 0
-15 16 0
-15 58 0
-151 -152 41 0
-151 -41 152 0
-153 -154 43 0
-153 -43 154 0
-155 -156 45 0
-155 -45 156 0
-157 -158 47 0
-157 -47 158 0
-159 -160 49 0
-159 -49 160 0
-16 17 0
-16 56 0
-161 -162 51 0
-161 -51 162 0
-163 -164 53 0
-163 -53 164 0
-165 -166 55 0
-165 -55 166 0
-167 -168 57 0
-167 -57 168 0
-169 -170 59 0
-169 -59 170 0
-17 18 0
-17 54 0
-171 -172 61 0
-171 -61 172 0
-173 174 0
-173 218 0
-174 175 0
-174 216 0
-175 176 0
-175 214 0
-176 177 0
-176 212 0
-177 178 0
-177 210 0
-178 179 0
-178 208 0
-179 180 0
-179 206 0
-18 19 0
-18 52 0
-180 181 0
-180 204 0
-181 182 0
-181 202 0
-182 183 0
-182 200 0
-183 184 0
-183 198 0
-184 185 0
-184 196 0
-185 186 0
-185 194 0
-186 187 0
-186 192 0
-187 188 0
-187 190 0
-188 -189 30 0
-188 -30 189 0
-19 20 0
-19 50 0
-190 -191 33 0
-190 -33 191 0
-192 -193 35 0
-192 -35 193 0
-194 -195 37 0
-194 -37 195 0
-196 -197 39 0
-196 -39 197 0
-198 -199 41 0
-198 -41 199 0
-2 3 7 0
-20 21 0
-20 48 0
-200 -201 43 0
-200 -43 201 0
-202 -203 45 0
-202 -45 203 0
-204 -205 47 0
-204 -47 205 0
-206 -207 49 0
-206 -49 207 0
-208 -209 51 0
-208 -51 209 0
-21 22 0
-21 46 0
-210 -211 53 0
-210 -53 211 0
-212 -213 55 0
-212 -55 213 0
-214 -215 57 0
-214 -57 215 0
-216 -217 59 0
-216 -59 217 0
-218 -219 61 0
-218 -61 219 0
-22 23 0
-22 44 0
-23 24 0
-23 42 0
-24 25 0
-24 40 0
-25 26 0
-25 38 0
-26 27 0
-26 36 0
-27 28 0
-27 34 0
-28 29 0
-28 32 0
-29 -30 31 0
-29 -31 30 0
-3 -4 0
-31 0
-32 -31 33 0
-32 -33 31 0
-34 -31 35 0
-34 -35 31 0
-36 -31 37 0
-36 -37 31 0
-38 -31 39 0
-38 -39 31 0
-4 -5 6 0
-4 -6 5 0
-40 -31 41 0
-40 -41 31 0
-42 -31 43 0
-42 -43 31 0
-44 -31 45 0
-44 -45 31 0
-46 -31 47 0
-46 -47 31 0
-48 -31 49 0
-48 -49 31 0
-50 -31 51 0
-50 -51 31 0
-52 -31 53 0
-52 -53 31 0
-54 -31 55 0
-54 -55 31 0
-56 -31 57 0
-56 -57 31 0
-58 -31 59 0
-58 -59 31 0
-60 -31 61 0
-60 -61 31 0
-62 -63 65 0
-62 63 173 0
-63 3 0
-63 64 0
-64 -13 5 0
-64 -5 13 0
-65 -66 120 0
-65 66 173 0
-66 -67 74 0
-66 67 80 0
-67 68 71 0
-68 -69 0
-69 -6 70 0
-69 -70 6 0
-7 -8 0
-71 -72 0
-72 -10 73 0
-72 -73 10 0
-74 -75 13 0
-74 75 76 0
-75 -10 13 0
-75 -13 10 0
-76 -77 79 0
-76 77 80 0
-77 68 0
-77 78 0
-78 -13 6 0
-78 -6 13 0
-79 -80 104 0
-79 80 110 0
-8 -10 9 0
-8 -9 10 0
-80 103 0
-80 81 0
-81 103 0
-81 82 0
-82 103 0
-82 83 0
-83 103 0
-83 84 0
-84 103 0
-84 85 0
-85 103 0
-85 86 0
-86 103 0
-86 87 0
-87 103 0
-87 88 0
-88 103 0
-88 89 0
-89 103 0
-89 90 0
-90 103 0
-90 91 0
-91 103 0
-91 92 0
-92 101 0
-92 93 0
-93 94 0
-93 99 0
-94 95 0
-94 97 0
-95 -31 96 0
-95 -96 31 0
-97 -31 98 0
-97 -98 31 0
-99 -100 31 0
-99 -31 100 0
1 -11 -173 0
1 -2 -11 0
1 0
1 2 -173 0
101 -102 -31 0
101 102 31 0
103 -31 -31 0
103 31 31 0
104 -105 -107 0
104 -107 -80 0
104 105 -80 0
105 -106 -13 0
105 106 13 0
107 -108 -31 0
107 -31 -80 0
107 108 -80 0
108 -109 -13 0
108 109 13 0
11 -12 -14 0
11 -14 -62 0
11 12 -62 0
110 -111 -31 0
110 -31 -115 0
110 111 -115 0
111 -112 -101 0
112 -113 -99 0
113 -114 -97 0
114 -96 -13 0
114 96 13 0
115 -116 -31 0
115 -31 -13 0
115 116 -13 0
116 -117 -101 0
117 -118 -99 0
118 -95 -119 0
119 -98 -13 0
119 98 13 0
12 -9 -13 0
12 9 13 0
120 -121 -123 0
120 -123 -173 0
120 121 -173 0
121 -122 -13 0
121 122 13 0
123 -124 -126 0
123 -126 -173 0
123 124 -173 0
124 -125 -13 0
124 125 13 0
126 -127 -171 0
127 -128 -169 0
128 -129 -167 0
129 -130 -165 0
13 0
130 -131 -163 0
131 -132 -161 0
132 -133 -159 0
133 -134 -157 0
134 -135 -155 0
135 -136 -153 0
136 -137 -151 0
137 -138 -149 0
138 -139 -147 0
139 -140 -145 0
14 -15 -60 0
140 -141 -143 0
141 -30 -142 0
141 30 142 0
143 -33 -144 0
143 33 144 0
145 -35 -146 0
145 35 146 0
147 -37 -148 0
147 37 148 0
149 -39 -150 0
149 39 150 0
15 -16 -58 0
151 -41 -152 0
151 41 152 0
153 -43 -154 0
153 43 154 0
155 -45 -156 0
155 45 156 0
157 -47 -158 0
157 47 158 0
159 -49 -160 0
159 49 160 0
16 -17 -56 0
161 -51 -162 0
161 51 162 0
163 -53 -164 0
163 53 164 0
165 -55 -166 0
165 55 166 0
167 -57 -168 0
167 57 168 0
169 -59 -170 0
169 59 170 0
17 -18 -54 0
171 -61 -172 0
171 61 172 0
173 -174 -218 0
174 -175 -216 0
175 -176 -214 0
176 -177 -212 0
177 -178 -210 0
178 -179 -208 0
179 -180 -206 0
18 -19 -52 0
180 -181 -204 0
181 -182 -202 0
182 -183 -200 0
183 -184 -198 0
184 -185 -196 0
185 -186 -194 0
186 -187 -192 0
187 -188 -190 0
188 -30 -189 0
188 30 189 0
19 -20 -50 0
190 -33 -191 0
190 33 191 0
192 -35 -193 0
192 35 193 0
194 -37 -195 0
194 37 195 0
196 -39 -197 0
196 39 197 0
198 -41 -199 0
198 41 199 0
2 -3 0
2 -7 0
20 -21 -48 0
200 -43 -201 0
200 43 201 0
202 -45 -203 0
202 45 203 0
204 -47 -205 0
204 47 205 0
206 -49 -207 0
206 49 207 0
208 -51 -209 0
208 51 209 0
21 -22 -46 0
210 -53 -211 0
210 53 211 0
212 -55 -213 0
212 55 213 0
214 -57 -215 0
214 57 215 0
216 -59 -217 0
216 59 217 0
218 -61 -219 0
218 61 219 0
22 -23 -44 0
23 -24 -42 0
24 -25 -40 0
25 -26 -38 0
26 -27 -36 0
27 -28 -34 0
28 -29 -32 0
29 -30 -31 0
29 30 31 0
3 4 0
32 -33 -31 0
32 33 31 0
34 -35 -31 0
34 35 31 0
36 -37 -31 0
36 37 31 0
38 -39 -31 0
38 39 31 0
4 -5 -6 0
4 5 6 0
40 -41 -31 0
40 41 31 0
42 -43 -31 0
42 43 31 0
44 -45 -31 0
44 45 31 0
46 -47 -31 0
46 47 31 0
48 -49 -31 0
48 49 31 0
50 -51 -31 0
50 51 31 0
52 -53 -31 0
52 53 31 0
54 -55 -31 0
54 55 31 0
56 -57 -31 0
56 57 31 0
58 -59 -31 0
58 59 31 0
60 -61 -31 0
60 61 31 0
62 -63 -65 0
62 -65 -173 0
62 63 -173 0
63 -3 -64 0
64 -5 -13 0
64 5 13 0
65 -120 -173 0
65 -66 -120 0
65 66 -173 0
66 -67 -74 0
66 -74 -80 0
66 67 -80 0
67 -68 0
67 -71 0
68 69 0
69 -6 -70 0
69 6 70 0
7 8 0
71 72 0
72 -10 -73 0
72 10 73 0
74 -13 -76 0
74 -75 -13 0
74 75 -76 0
75 -10 -13 0
75 10 13 0
76 -77 -79 0
76 -79 -80 0
76 77 -80 0
77 -68 -78 0
78 -6 -13 0
78 6 13 0
79 -104 -110 0
79 -80 -104 0
79 80 -110 0
8 -9 -10 0
8 9 10 0
80 -81 -103 0
81 -82 -103 0
82 -83 -103 0
83 -84 -103 0
84 -85 -103 0
85 -86 -103 0
86 -87 -103 0
87 -88 -103 0
88 -89 -103 0
89 -90 -103 0
90 -91 -103 0
91 -92 -103 0
92 -93 -101 0
93 -94 -99 0
94 -95 -97 0
95 -96 -31 0
95 96 31 0
97 -98 -31 0
97 98 31 0
99 -100 -31 0
99 100 31 0
